c *********************************
c * Circuit generated by BenCGen
c *
c * CarrySelectAdder_39_39_39_InOut_G4T
c *
c * Ports with 1 gate(s): 65
c * Ports with 2 gate(s): 521
c * Ports with 3 gate(s): 2
c * Ports with 4 gate(s): 16
c * Total gates: 604
c *********************************
p cnf 682 1929
1 120 0
-1 -120 0
1 -119 0
120 -119 0
-1 -120 119 0
119 137 0
-119 -137 0
1 40 -123 0
-1 40 123 0
1 -40 123 0
-1 -40 -123 0
123 119 -79 0
-123 119 79 0
123 -119 79 0
-123 -119 -79 0
119 -124 0
123 -124 0
-119 -123 124 0
40 -125 0
1 -125 0
-40 -1 125 0
-124 122 0
-125 122 0
124 125 -122 0
2 41 -127 0
-2 41 127 0
2 -41 127 0
-2 -41 -127 0
127 122 -80 0
-127 122 80 0
127 -122 80 0
-127 -122 -80 0
122 -128 0
127 -128 0
-122 -127 128 0
41 -129 0
2 -129 0
-41 -2 129 0
-128 126 0
-129 126 0
128 129 -126 0
3 42 -131 0
-3 42 131 0
3 -42 131 0
-3 -42 -131 0
131 126 -81 0
-131 126 81 0
131 -126 81 0
-131 -126 -81 0
126 -132 0
131 -132 0
-126 -131 132 0
42 -133 0
3 -133 0
-42 -3 133 0
-132 130 0
-133 130 0
132 133 -130 0
4 43 -134 0
-4 43 134 0
4 -43 134 0
-4 -43 -134 0
134 130 -82 0
-134 130 82 0
134 -130 82 0
-134 -130 -82 0
130 -135 0
134 -135 0
-130 -134 135 0
43 -136 0
4 -136 0
-43 -4 136 0
-135 121 0
-136 121 0
135 136 -121 0
5 44 -148 0
-5 44 148 0
5 -44 148 0
-5 -44 -148 0
148 119 -138 0
-148 119 138 0
148 -119 138 0
-148 -119 -138 0
119 -149 0
148 -149 0
-119 -148 149 0
44 -150 0
5 -150 0
-44 -5 150 0
-149 147 0
-150 147 0
149 150 -147 0
6 45 -152 0
-6 45 152 0
6 -45 152 0
-6 -45 -152 0
152 147 -139 0
-152 147 139 0
152 -147 139 0
-152 -147 -139 0
147 -153 0
152 -153 0
-147 -152 153 0
45 -154 0
6 -154 0
-45 -6 154 0
-153 151 0
-154 151 0
153 154 -151 0
7 46 -156 0
-7 46 156 0
7 -46 156 0
-7 -46 -156 0
156 151 -140 0
-156 151 140 0
156 -151 140 0
-156 -151 -140 0
151 -157 0
156 -157 0
-151 -156 157 0
46 -158 0
7 -158 0
-46 -7 158 0
-157 155 0
-158 155 0
157 158 -155 0
8 47 -159 0
-8 47 159 0
8 -47 159 0
-8 -47 -159 0
159 155 -141 0
-159 155 141 0
159 -155 141 0
-159 -155 -141 0
155 -160 0
159 -160 0
-155 -159 160 0
47 -161 0
8 -161 0
-47 -8 161 0
-160 146 0
-161 146 0
160 161 -146 0
148 -162 0
152 -162 0
156 -162 0
159 -162 0
-148 -152 -156 -159 162 0
161 -163 0
-161 163 0
5 44 -166 0
-5 44 166 0
5 -44 166 0
-5 -44 -166 0
166 137 -142 0
-166 137 142 0
166 -137 142 0
-166 -137 -142 0
137 -167 0
166 -167 0
-137 -166 167 0
44 -168 0
5 -168 0
-44 -5 168 0
-167 165 0
-168 165 0
167 168 -165 0
6 45 -170 0
-6 45 170 0
6 -45 170 0
-6 -45 -170 0
170 165 -143 0
-170 165 143 0
170 -165 143 0
-170 -165 -143 0
165 -171 0
170 -171 0
-165 -170 171 0
45 -172 0
6 -172 0
-45 -6 172 0
-171 169 0
-172 169 0
171 172 -169 0
7 46 -174 0
-7 46 174 0
7 -46 174 0
-7 -46 -174 0
174 169 -144 0
-174 169 144 0
174 -169 144 0
-174 -169 -144 0
169 -175 0
174 -175 0
-169 -174 175 0
46 -176 0
7 -176 0
-46 -7 176 0
-175 173 0
-176 173 0
175 176 -173 0
8 47 -177 0
-8 47 177 0
8 -47 177 0
-8 -47 -177 0
177 173 -145 0
-177 173 145 0
177 -173 145 0
-177 -173 -145 0
173 -178 0
177 -178 0
-173 -177 178 0
47 -179 0
8 -179 0
-47 -8 179 0
-178 164 0
-179 164 0
178 179 -164 0
166 -180 0
170 -180 0
174 -180 0
177 -180 0
-166 -170 -174 -177 180 0
179 -181 0
-179 181 0
9 48 -210 0
-9 48 210 0
9 -48 210 0
-9 -48 -210 0
210 119 -200 0
-210 119 200 0
210 -119 200 0
-210 -119 -200 0
119 -211 0
210 -211 0
-119 -210 211 0
48 -212 0
9 -212 0
-48 -9 212 0
-211 209 0
-212 209 0
211 212 -209 0
10 49 -214 0
-10 49 214 0
10 -49 214 0
-10 -49 -214 0
214 209 -201 0
-214 209 201 0
214 -209 201 0
-214 -209 -201 0
209 -215 0
214 -215 0
-209 -214 215 0
49 -216 0
10 -216 0
-49 -10 216 0
-215 213 0
-216 213 0
215 216 -213 0
11 50 -218 0
-11 50 218 0
11 -50 218 0
-11 -50 -218 0
218 213 -202 0
-218 213 202 0
218 -213 202 0
-218 -213 -202 0
213 -219 0
218 -219 0
-213 -218 219 0
50 -220 0
11 -220 0
-50 -11 220 0
-219 217 0
-220 217 0
219 220 -217 0
12 51 -221 0
-12 51 221 0
12 -51 221 0
-12 -51 -221 0
221 217 -203 0
-221 217 203 0
221 -217 203 0
-221 -217 -203 0
217 -222 0
221 -222 0
-217 -221 222 0
51 -223 0
12 -223 0
-51 -12 223 0
-222 208 0
-223 208 0
222 223 -208 0
210 -224 0
214 -224 0
218 -224 0
221 -224 0
-210 -214 -218 -221 224 0
223 -225 0
-223 225 0
9 48 -228 0
-9 48 228 0
9 -48 228 0
-9 -48 -228 0
228 137 -204 0
-228 137 204 0
228 -137 204 0
-228 -137 -204 0
137 -229 0
228 -229 0
-137 -228 229 0
48 -230 0
9 -230 0
-48 -9 230 0
-229 227 0
-230 227 0
229 230 -227 0
10 49 -232 0
-10 49 232 0
10 -49 232 0
-10 -49 -232 0
232 227 -205 0
-232 227 205 0
232 -227 205 0
-232 -227 -205 0
227 -233 0
232 -233 0
-227 -232 233 0
49 -234 0
10 -234 0
-49 -10 234 0
-233 231 0
-234 231 0
233 234 -231 0
11 50 -236 0
-11 50 236 0
11 -50 236 0
-11 -50 -236 0
236 231 -206 0
-236 231 206 0
236 -231 206 0
-236 -231 -206 0
231 -237 0
236 -237 0
-231 -236 237 0
50 -238 0
11 -238 0
-50 -11 238 0
-237 235 0
-238 235 0
237 238 -235 0
12 51 -239 0
-12 51 239 0
12 -51 239 0
-12 -51 -239 0
239 235 -207 0
-239 235 207 0
239 -235 207 0
-239 -235 -207 0
235 -240 0
239 -240 0
-235 -239 240 0
51 -241 0
12 -241 0
-51 -12 241 0
-240 226 0
-241 226 0
240 241 -226 0
228 -242 0
232 -242 0
236 -242 0
239 -242 0
-228 -232 -236 -239 242 0
241 -243 0
-241 243 0
13 52 -272 0
-13 52 272 0
13 -52 272 0
-13 -52 -272 0
272 119 -262 0
-272 119 262 0
272 -119 262 0
-272 -119 -262 0
119 -273 0
272 -273 0
-119 -272 273 0
52 -274 0
13 -274 0
-52 -13 274 0
-273 271 0
-274 271 0
273 274 -271 0
14 53 -276 0
-14 53 276 0
14 -53 276 0
-14 -53 -276 0
276 271 -263 0
-276 271 263 0
276 -271 263 0
-276 -271 -263 0
271 -277 0
276 -277 0
-271 -276 277 0
53 -278 0
14 -278 0
-53 -14 278 0
-277 275 0
-278 275 0
277 278 -275 0
15 54 -280 0
-15 54 280 0
15 -54 280 0
-15 -54 -280 0
280 275 -264 0
-280 275 264 0
280 -275 264 0
-280 -275 -264 0
275 -281 0
280 -281 0
-275 -280 281 0
54 -282 0
15 -282 0
-54 -15 282 0
-281 279 0
-282 279 0
281 282 -279 0
16 55 -283 0
-16 55 283 0
16 -55 283 0
-16 -55 -283 0
283 279 -265 0
-283 279 265 0
283 -279 265 0
-283 -279 -265 0
279 -284 0
283 -284 0
-279 -283 284 0
55 -285 0
16 -285 0
-55 -16 285 0
-284 270 0
-285 270 0
284 285 -270 0
272 -286 0
276 -286 0
280 -286 0
283 -286 0
-272 -276 -280 -283 286 0
285 -287 0
-285 287 0
13 52 -290 0
-13 52 290 0
13 -52 290 0
-13 -52 -290 0
290 137 -266 0
-290 137 266 0
290 -137 266 0
-290 -137 -266 0
137 -291 0
290 -291 0
-137 -290 291 0
52 -292 0
13 -292 0
-52 -13 292 0
-291 289 0
-292 289 0
291 292 -289 0
14 53 -294 0
-14 53 294 0
14 -53 294 0
-14 -53 -294 0
294 289 -267 0
-294 289 267 0
294 -289 267 0
-294 -289 -267 0
289 -295 0
294 -295 0
-289 -294 295 0
53 -296 0
14 -296 0
-53 -14 296 0
-295 293 0
-296 293 0
295 296 -293 0
15 54 -298 0
-15 54 298 0
15 -54 298 0
-15 -54 -298 0
298 293 -268 0
-298 293 268 0
298 -293 268 0
-298 -293 -268 0
293 -299 0
298 -299 0
-293 -298 299 0
54 -300 0
15 -300 0
-54 -15 300 0
-299 297 0
-300 297 0
299 300 -297 0
16 55 -301 0
-16 55 301 0
16 -55 301 0
-16 -55 -301 0
301 297 -269 0
-301 297 269 0
301 -297 269 0
-301 -297 -269 0
297 -302 0
301 -302 0
-297 -301 302 0
55 -303 0
16 -303 0
-55 -16 303 0
-302 288 0
-303 288 0
302 303 -288 0
290 -304 0
294 -304 0
298 -304 0
301 -304 0
-290 -294 -298 -301 304 0
303 -305 0
-303 305 0
17 56 -334 0
-17 56 334 0
17 -56 334 0
-17 -56 -334 0
334 119 -324 0
-334 119 324 0
334 -119 324 0
-334 -119 -324 0
119 -335 0
334 -335 0
-119 -334 335 0
56 -336 0
17 -336 0
-56 -17 336 0
-335 333 0
-336 333 0
335 336 -333 0
18 57 -338 0
-18 57 338 0
18 -57 338 0
-18 -57 -338 0
338 333 -325 0
-338 333 325 0
338 -333 325 0
-338 -333 -325 0
333 -339 0
338 -339 0
-333 -338 339 0
57 -340 0
18 -340 0
-57 -18 340 0
-339 337 0
-340 337 0
339 340 -337 0
19 58 -342 0
-19 58 342 0
19 -58 342 0
-19 -58 -342 0
342 337 -326 0
-342 337 326 0
342 -337 326 0
-342 -337 -326 0
337 -343 0
342 -343 0
-337 -342 343 0
58 -344 0
19 -344 0
-58 -19 344 0
-343 341 0
-344 341 0
343 344 -341 0
20 59 -345 0
-20 59 345 0
20 -59 345 0
-20 -59 -345 0
345 341 -327 0
-345 341 327 0
345 -341 327 0
-345 -341 -327 0
341 -346 0
345 -346 0
-341 -345 346 0
59 -347 0
20 -347 0
-59 -20 347 0
-346 332 0
-347 332 0
346 347 -332 0
334 -348 0
338 -348 0
342 -348 0
345 -348 0
-334 -338 -342 -345 348 0
347 -349 0
-347 349 0
17 56 -352 0
-17 56 352 0
17 -56 352 0
-17 -56 -352 0
352 137 -328 0
-352 137 328 0
352 -137 328 0
-352 -137 -328 0
137 -353 0
352 -353 0
-137 -352 353 0
56 -354 0
17 -354 0
-56 -17 354 0
-353 351 0
-354 351 0
353 354 -351 0
18 57 -356 0
-18 57 356 0
18 -57 356 0
-18 -57 -356 0
356 351 -329 0
-356 351 329 0
356 -351 329 0
-356 -351 -329 0
351 -357 0
356 -357 0
-351 -356 357 0
57 -358 0
18 -358 0
-57 -18 358 0
-357 355 0
-358 355 0
357 358 -355 0
19 58 -360 0
-19 58 360 0
19 -58 360 0
-19 -58 -360 0
360 355 -330 0
-360 355 330 0
360 -355 330 0
-360 -355 -330 0
355 -361 0
360 -361 0
-355 -360 361 0
58 -362 0
19 -362 0
-58 -19 362 0
-361 359 0
-362 359 0
361 362 -359 0
20 59 -363 0
-20 59 363 0
20 -59 363 0
-20 -59 -363 0
363 359 -331 0
-363 359 331 0
363 -359 331 0
-363 -359 -331 0
359 -364 0
363 -364 0
-359 -363 364 0
59 -365 0
20 -365 0
-59 -20 365 0
-364 350 0
-365 350 0
364 365 -350 0
352 -366 0
356 -366 0
360 -366 0
363 -366 0
-352 -356 -360 -363 366 0
365 -367 0
-365 367 0
21 60 -396 0
-21 60 396 0
21 -60 396 0
-21 -60 -396 0
396 119 -386 0
-396 119 386 0
396 -119 386 0
-396 -119 -386 0
119 -397 0
396 -397 0
-119 -396 397 0
60 -398 0
21 -398 0
-60 -21 398 0
-397 395 0
-398 395 0
397 398 -395 0
22 61 -400 0
-22 61 400 0
22 -61 400 0
-22 -61 -400 0
400 395 -387 0
-400 395 387 0
400 -395 387 0
-400 -395 -387 0
395 -401 0
400 -401 0
-395 -400 401 0
61 -402 0
22 -402 0
-61 -22 402 0
-401 399 0
-402 399 0
401 402 -399 0
23 62 -404 0
-23 62 404 0
23 -62 404 0
-23 -62 -404 0
404 399 -388 0
-404 399 388 0
404 -399 388 0
-404 -399 -388 0
399 -405 0
404 -405 0
-399 -404 405 0
62 -406 0
23 -406 0
-62 -23 406 0
-405 403 0
-406 403 0
405 406 -403 0
24 63 -407 0
-24 63 407 0
24 -63 407 0
-24 -63 -407 0
407 403 -389 0
-407 403 389 0
407 -403 389 0
-407 -403 -389 0
403 -408 0
407 -408 0
-403 -407 408 0
63 -409 0
24 -409 0
-63 -24 409 0
-408 394 0
-409 394 0
408 409 -394 0
396 -410 0
400 -410 0
404 -410 0
407 -410 0
-396 -400 -404 -407 410 0
409 -411 0
-409 411 0
21 60 -414 0
-21 60 414 0
21 -60 414 0
-21 -60 -414 0
414 137 -390 0
-414 137 390 0
414 -137 390 0
-414 -137 -390 0
137 -415 0
414 -415 0
-137 -414 415 0
60 -416 0
21 -416 0
-60 -21 416 0
-415 413 0
-416 413 0
415 416 -413 0
22 61 -418 0
-22 61 418 0
22 -61 418 0
-22 -61 -418 0
418 413 -391 0
-418 413 391 0
418 -413 391 0
-418 -413 -391 0
413 -419 0
418 -419 0
-413 -418 419 0
61 -420 0
22 -420 0
-61 -22 420 0
-419 417 0
-420 417 0
419 420 -417 0
23 62 -422 0
-23 62 422 0
23 -62 422 0
-23 -62 -422 0
422 417 -392 0
-422 417 392 0
422 -417 392 0
-422 -417 -392 0
417 -423 0
422 -423 0
-417 -422 423 0
62 -424 0
23 -424 0
-62 -23 424 0
-423 421 0
-424 421 0
423 424 -421 0
24 63 -425 0
-24 63 425 0
24 -63 425 0
-24 -63 -425 0
425 421 -393 0
-425 421 393 0
425 -421 393 0
-425 -421 -393 0
421 -426 0
425 -426 0
-421 -425 426 0
63 -427 0
24 -427 0
-63 -24 427 0
-426 412 0
-427 412 0
426 427 -412 0
414 -428 0
418 -428 0
422 -428 0
425 -428 0
-414 -418 -422 -425 428 0
427 -429 0
-427 429 0
25 64 -458 0
-25 64 458 0
25 -64 458 0
-25 -64 -458 0
458 119 -448 0
-458 119 448 0
458 -119 448 0
-458 -119 -448 0
119 -459 0
458 -459 0
-119 -458 459 0
64 -460 0
25 -460 0
-64 -25 460 0
-459 457 0
-460 457 0
459 460 -457 0
26 65 -462 0
-26 65 462 0
26 -65 462 0
-26 -65 -462 0
462 457 -449 0
-462 457 449 0
462 -457 449 0
-462 -457 -449 0
457 -463 0
462 -463 0
-457 -462 463 0
65 -464 0
26 -464 0
-65 -26 464 0
-463 461 0
-464 461 0
463 464 -461 0
27 66 -466 0
-27 66 466 0
27 -66 466 0
-27 -66 -466 0
466 461 -450 0
-466 461 450 0
466 -461 450 0
-466 -461 -450 0
461 -467 0
466 -467 0
-461 -466 467 0
66 -468 0
27 -468 0
-66 -27 468 0
-467 465 0
-468 465 0
467 468 -465 0
28 67 -469 0
-28 67 469 0
28 -67 469 0
-28 -67 -469 0
469 465 -451 0
-469 465 451 0
469 -465 451 0
-469 -465 -451 0
465 -470 0
469 -470 0
-465 -469 470 0
67 -471 0
28 -471 0
-67 -28 471 0
-470 456 0
-471 456 0
470 471 -456 0
458 -472 0
462 -472 0
466 -472 0
469 -472 0
-458 -462 -466 -469 472 0
471 -473 0
-471 473 0
25 64 -476 0
-25 64 476 0
25 -64 476 0
-25 -64 -476 0
476 137 -452 0
-476 137 452 0
476 -137 452 0
-476 -137 -452 0
137 -477 0
476 -477 0
-137 -476 477 0
64 -478 0
25 -478 0
-64 -25 478 0
-477 475 0
-478 475 0
477 478 -475 0
26 65 -480 0
-26 65 480 0
26 -65 480 0
-26 -65 -480 0
480 475 -453 0
-480 475 453 0
480 -475 453 0
-480 -475 -453 0
475 -481 0
480 -481 0
-475 -480 481 0
65 -482 0
26 -482 0
-65 -26 482 0
-481 479 0
-482 479 0
481 482 -479 0
27 66 -484 0
-27 66 484 0
27 -66 484 0
-27 -66 -484 0
484 479 -454 0
-484 479 454 0
484 -479 454 0
-484 -479 -454 0
479 -485 0
484 -485 0
-479 -484 485 0
66 -486 0
27 -486 0
-66 -27 486 0
-485 483 0
-486 483 0
485 486 -483 0
28 67 -487 0
-28 67 487 0
28 -67 487 0
-28 -67 -487 0
487 483 -455 0
-487 483 455 0
487 -483 455 0
-487 -483 -455 0
483 -488 0
487 -488 0
-483 -487 488 0
67 -489 0
28 -489 0
-67 -28 489 0
-488 474 0
-489 474 0
488 489 -474 0
476 -490 0
480 -490 0
484 -490 0
487 -490 0
-476 -480 -484 -487 490 0
489 -491 0
-489 491 0
29 68 -520 0
-29 68 520 0
29 -68 520 0
-29 -68 -520 0
520 119 -510 0
-520 119 510 0
520 -119 510 0
-520 -119 -510 0
119 -521 0
520 -521 0
-119 -520 521 0
68 -522 0
29 -522 0
-68 -29 522 0
-521 519 0
-522 519 0
521 522 -519 0
30 69 -524 0
-30 69 524 0
30 -69 524 0
-30 -69 -524 0
524 519 -511 0
-524 519 511 0
524 -519 511 0
-524 -519 -511 0
519 -525 0
524 -525 0
-519 -524 525 0
69 -526 0
30 -526 0
-69 -30 526 0
-525 523 0
-526 523 0
525 526 -523 0
31 70 -528 0
-31 70 528 0
31 -70 528 0
-31 -70 -528 0
528 523 -512 0
-528 523 512 0
528 -523 512 0
-528 -523 -512 0
523 -529 0
528 -529 0
-523 -528 529 0
70 -530 0
31 -530 0
-70 -31 530 0
-529 527 0
-530 527 0
529 530 -527 0
32 71 -531 0
-32 71 531 0
32 -71 531 0
-32 -71 -531 0
531 527 -513 0
-531 527 513 0
531 -527 513 0
-531 -527 -513 0
527 -532 0
531 -532 0
-527 -531 532 0
71 -533 0
32 -533 0
-71 -32 533 0
-532 518 0
-533 518 0
532 533 -518 0
520 -534 0
524 -534 0
528 -534 0
531 -534 0
-520 -524 -528 -531 534 0
533 -535 0
-533 535 0
29 68 -538 0
-29 68 538 0
29 -68 538 0
-29 -68 -538 0
538 137 -514 0
-538 137 514 0
538 -137 514 0
-538 -137 -514 0
137 -539 0
538 -539 0
-137 -538 539 0
68 -540 0
29 -540 0
-68 -29 540 0
-539 537 0
-540 537 0
539 540 -537 0
30 69 -542 0
-30 69 542 0
30 -69 542 0
-30 -69 -542 0
542 537 -515 0
-542 537 515 0
542 -537 515 0
-542 -537 -515 0
537 -543 0
542 -543 0
-537 -542 543 0
69 -544 0
30 -544 0
-69 -30 544 0
-543 541 0
-544 541 0
543 544 -541 0
31 70 -546 0
-31 70 546 0
31 -70 546 0
-31 -70 -546 0
546 541 -516 0
-546 541 516 0
546 -541 516 0
-546 -541 -516 0
541 -547 0
546 -547 0
-541 -546 547 0
70 -548 0
31 -548 0
-70 -31 548 0
-547 545 0
-548 545 0
547 548 -545 0
32 71 -549 0
-32 71 549 0
32 -71 549 0
-32 -71 -549 0
549 545 -517 0
-549 545 517 0
549 -545 517 0
-549 -545 -517 0
545 -550 0
549 -550 0
-545 -549 550 0
71 -551 0
32 -551 0
-71 -32 551 0
-550 536 0
-551 536 0
550 551 -536 0
538 -552 0
542 -552 0
546 -552 0
549 -552 0
-538 -542 -546 -549 552 0
551 -553 0
-551 553 0
33 72 -582 0
-33 72 582 0
33 -72 582 0
-33 -72 -582 0
582 119 -572 0
-582 119 572 0
582 -119 572 0
-582 -119 -572 0
119 -583 0
582 -583 0
-119 -582 583 0
72 -584 0
33 -584 0
-72 -33 584 0
-583 581 0
-584 581 0
583 584 -581 0
34 73 -586 0
-34 73 586 0
34 -73 586 0
-34 -73 -586 0
586 581 -573 0
-586 581 573 0
586 -581 573 0
-586 -581 -573 0
581 -587 0
586 -587 0
-581 -586 587 0
73 -588 0
34 -588 0
-73 -34 588 0
-587 585 0
-588 585 0
587 588 -585 0
35 74 -590 0
-35 74 590 0
35 -74 590 0
-35 -74 -590 0
590 585 -574 0
-590 585 574 0
590 -585 574 0
-590 -585 -574 0
585 -591 0
590 -591 0
-585 -590 591 0
74 -592 0
35 -592 0
-74 -35 592 0
-591 589 0
-592 589 0
591 592 -589 0
36 75 -593 0
-36 75 593 0
36 -75 593 0
-36 -75 -593 0
593 589 -575 0
-593 589 575 0
593 -589 575 0
-593 -589 -575 0
589 -594 0
593 -594 0
-589 -593 594 0
75 -595 0
36 -595 0
-75 -36 595 0
-594 580 0
-595 580 0
594 595 -580 0
582 -596 0
586 -596 0
590 -596 0
593 -596 0
-582 -586 -590 -593 596 0
595 -597 0
-595 597 0
33 72 -600 0
-33 72 600 0
33 -72 600 0
-33 -72 -600 0
600 137 -576 0
-600 137 576 0
600 -137 576 0
-600 -137 -576 0
137 -601 0
600 -601 0
-137 -600 601 0
72 -602 0
33 -602 0
-72 -33 602 0
-601 599 0
-602 599 0
601 602 -599 0
34 73 -604 0
-34 73 604 0
34 -73 604 0
-34 -73 -604 0
604 599 -577 0
-604 599 577 0
604 -599 577 0
-604 -599 -577 0
599 -605 0
604 -605 0
-599 -604 605 0
73 -606 0
34 -606 0
-73 -34 606 0
-605 603 0
-606 603 0
605 606 -603 0
35 74 -608 0
-35 74 608 0
35 -74 608 0
-35 -74 -608 0
608 603 -578 0
-608 603 578 0
608 -603 578 0
-608 -603 -578 0
603 -609 0
608 -609 0
-603 -608 609 0
74 -610 0
35 -610 0
-74 -35 610 0
-609 607 0
-610 607 0
609 610 -607 0
36 75 -611 0
-36 75 611 0
36 -75 611 0
-36 -75 -611 0
611 607 -579 0
-611 607 579 0
611 -607 579 0
-611 -607 -579 0
607 -612 0
611 -612 0
-607 -611 612 0
75 -613 0
36 -613 0
-75 -36 613 0
-612 598 0
-613 598 0
612 613 -598 0
600 -614 0
604 -614 0
608 -614 0
611 -614 0
-600 -604 -608 -611 614 0
613 -615 0
-613 615 0
37 76 -642 0
-37 76 642 0
37 -76 642 0
-37 -76 -642 0
642 119 -634 0
-642 119 634 0
642 -119 634 0
-642 -119 -634 0
119 -643 0
642 -643 0
-119 -642 643 0
76 -644 0
37 -644 0
-76 -37 644 0
-643 641 0
-644 641 0
643 644 -641 0
38 77 -646 0
-38 77 646 0
38 -77 646 0
-38 -77 -646 0
646 641 -635 0
-646 641 635 0
646 -641 635 0
-646 -641 -635 0
641 -647 0
646 -647 0
-641 -646 647 0
77 -648 0
38 -648 0
-77 -38 648 0
-647 645 0
-648 645 0
647 648 -645 0
39 78 -649 0
-39 78 649 0
39 -78 649 0
-39 -78 -649 0
649 645 -636 0
-649 645 636 0
649 -645 636 0
-649 -645 -636 0
645 -650 0
649 -650 0
-645 -649 650 0
78 -651 0
39 -651 0
-78 -39 651 0
-650 640 0
-651 640 0
650 651 -640 0
642 -652 0
646 -652 0
649 -652 0
-642 -646 -649 652 0
651 -653 0
-651 653 0
37 76 -656 0
-37 76 656 0
37 -76 656 0
-37 -76 -656 0
656 137 -637 0
-656 137 637 0
656 -137 637 0
-656 -137 -637 0
137 -657 0
656 -657 0
-137 -656 657 0
76 -658 0
37 -658 0
-76 -37 658 0
-657 655 0
-658 655 0
657 658 -655 0
38 77 -660 0
-38 77 660 0
38 -77 660 0
-38 -77 -660 0
660 655 -638 0
-660 655 638 0
660 -655 638 0
-660 -655 -638 0
655 -661 0
660 -661 0
-655 -660 661 0
77 -662 0
38 -662 0
-77 -38 662 0
-661 659 0
-662 659 0
661 662 -659 0
39 78 -663 0
-39 78 663 0
39 -78 663 0
-39 -78 -663 0
663 659 -639 0
-663 659 639 0
663 -659 639 0
-663 -659 -639 0
659 -664 0
663 -664 0
-659 -663 664 0
78 -665 0
39 -665 0
-78 -39 665 0
-664 654 0
-665 654 0
664 665 -654 0
656 -666 0
660 -666 0
663 -666 0
-656 -660 -663 666 0
665 -667 0
-665 667 0
121 183 0
-121 -183 0
183 -184 0
138 -184 0
-183 -138 184 0
121 -185 0
142 -185 0
-121 -142 185 0
-184 83 0
-185 83 0
184 185 -83 0
121 186 0
-121 -186 0
186 -187 0
139 -187 0
-186 -139 187 0
121 -188 0
143 -188 0
-121 -143 188 0
-187 84 0
-188 84 0
187 188 -84 0
121 189 0
-121 -189 0
189 -190 0
140 -190 0
-189 -140 190 0
121 -191 0
144 -191 0
-121 -144 191 0
-190 85 0
-191 85 0
190 191 -85 0
121 192 0
-121 -192 0
192 -193 0
141 -193 0
-192 -141 193 0
121 -194 0
145 -194 0
-121 -145 194 0
-193 86 0
-194 86 0
193 194 -86 0
121 195 0
-121 -195 0
195 -196 0
146 -196 0
-195 -146 196 0
121 -197 0
164 -197 0
-121 -164 197 0
-196 182 0
-197 182 0
196 197 -182 0
121 -198 0
180 -198 0
-121 -180 198 0
-198 199 0
-182 199 0
198 182 -199 0
199 245 0
-199 -245 0
245 -246 0
200 -246 0
-245 -200 246 0
199 -247 0
204 -247 0
-199 -204 247 0
-246 87 0
-247 87 0
246 247 -87 0
199 248 0
-199 -248 0
248 -249 0
201 -249 0
-248 -201 249 0
199 -250 0
205 -250 0
-199 -205 250 0
-249 88 0
-250 88 0
249 250 -88 0
199 251 0
-199 -251 0
251 -252 0
202 -252 0
-251 -202 252 0
199 -253 0
206 -253 0
-199 -206 253 0
-252 89 0
-253 89 0
252 253 -89 0
199 254 0
-199 -254 0
254 -255 0
203 -255 0
-254 -203 255 0
199 -256 0
207 -256 0
-199 -207 256 0
-255 90 0
-256 90 0
255 256 -90 0
199 257 0
-199 -257 0
257 -258 0
208 -258 0
-257 -208 258 0
199 -259 0
226 -259 0
-199 -226 259 0
-258 244 0
-259 244 0
258 259 -244 0
199 -260 0
242 -260 0
-199 -242 260 0
-260 261 0
-244 261 0
260 244 -261 0
261 307 0
-261 -307 0
307 -308 0
262 -308 0
-307 -262 308 0
261 -309 0
266 -309 0
-261 -266 309 0
-308 91 0
-309 91 0
308 309 -91 0
261 310 0
-261 -310 0
310 -311 0
263 -311 0
-310 -263 311 0
261 -312 0
267 -312 0
-261 -267 312 0
-311 92 0
-312 92 0
311 312 -92 0
261 313 0
-261 -313 0
313 -314 0
264 -314 0
-313 -264 314 0
261 -315 0
268 -315 0
-261 -268 315 0
-314 93 0
-315 93 0
314 315 -93 0
261 316 0
-261 -316 0
316 -317 0
265 -317 0
-316 -265 317 0
261 -318 0
269 -318 0
-261 -269 318 0
-317 94 0
-318 94 0
317 318 -94 0
261 319 0
-261 -319 0
319 -320 0
270 -320 0
-319 -270 320 0
261 -321 0
288 -321 0
-261 -288 321 0
-320 306 0
-321 306 0
320 321 -306 0
261 -322 0
304 -322 0
-261 -304 322 0
-322 323 0
-306 323 0
322 306 -323 0
323 369 0
-323 -369 0
369 -370 0
324 -370 0
-369 -324 370 0
323 -371 0
328 -371 0
-323 -328 371 0
-370 95 0
-371 95 0
370 371 -95 0
323 372 0
-323 -372 0
372 -373 0
325 -373 0
-372 -325 373 0
323 -374 0
329 -374 0
-323 -329 374 0
-373 96 0
-374 96 0
373 374 -96 0
323 375 0
-323 -375 0
375 -376 0
326 -376 0
-375 -326 376 0
323 -377 0
330 -377 0
-323 -330 377 0
-376 97 0
-377 97 0
376 377 -97 0
323 378 0
-323 -378 0
378 -379 0
327 -379 0
-378 -327 379 0
323 -380 0
331 -380 0
-323 -331 380 0
-379 98 0
-380 98 0
379 380 -98 0
323 381 0
-323 -381 0
381 -382 0
332 -382 0
-381 -332 382 0
323 -383 0
350 -383 0
-323 -350 383 0
-382 368 0
-383 368 0
382 383 -368 0
323 -384 0
366 -384 0
-323 -366 384 0
-384 385 0
-368 385 0
384 368 -385 0
385 431 0
-385 -431 0
431 -432 0
386 -432 0
-431 -386 432 0
385 -433 0
390 -433 0
-385 -390 433 0
-432 99 0
-433 99 0
432 433 -99 0
385 434 0
-385 -434 0
434 -435 0
387 -435 0
-434 -387 435 0
385 -436 0
391 -436 0
-385 -391 436 0
-435 100 0
-436 100 0
435 436 -100 0
385 437 0
-385 -437 0
437 -438 0
388 -438 0
-437 -388 438 0
385 -439 0
392 -439 0
-385 -392 439 0
-438 101 0
-439 101 0
438 439 -101 0
385 440 0
-385 -440 0
440 -441 0
389 -441 0
-440 -389 441 0
385 -442 0
393 -442 0
-385 -393 442 0
-441 102 0
-442 102 0
441 442 -102 0
385 443 0
-385 -443 0
443 -444 0
394 -444 0
-443 -394 444 0
385 -445 0
412 -445 0
-385 -412 445 0
-444 430 0
-445 430 0
444 445 -430 0
385 -446 0
428 -446 0
-385 -428 446 0
-446 447 0
-430 447 0
446 430 -447 0
447 493 0
-447 -493 0
493 -494 0
448 -494 0
-493 -448 494 0
447 -495 0
452 -495 0
-447 -452 495 0
-494 103 0
-495 103 0
494 495 -103 0
447 496 0
-447 -496 0
496 -497 0
449 -497 0
-496 -449 497 0
447 -498 0
453 -498 0
-447 -453 498 0
-497 104 0
-498 104 0
497 498 -104 0
447 499 0
-447 -499 0
499 -500 0
450 -500 0
-499 -450 500 0
447 -501 0
454 -501 0
-447 -454 501 0
-500 105 0
-501 105 0
500 501 -105 0
447 502 0
-447 -502 0
502 -503 0
451 -503 0
-502 -451 503 0
447 -504 0
455 -504 0
-447 -455 504 0
-503 106 0
-504 106 0
503 504 -106 0
447 505 0
-447 -505 0
505 -506 0
456 -506 0
-505 -456 506 0
447 -507 0
474 -507 0
-447 -474 507 0
-506 492 0
-507 492 0
506 507 -492 0
447 -508 0
490 -508 0
-447 -490 508 0
-508 509 0
-492 509 0
508 492 -509 0
509 555 0
-509 -555 0
555 -556 0
510 -556 0
-555 -510 556 0
509 -557 0
514 -557 0
-509 -514 557 0
-556 107 0
-557 107 0
556 557 -107 0
509 558 0
-509 -558 0
558 -559 0
511 -559 0
-558 -511 559 0
509 -560 0
515 -560 0
-509 -515 560 0
-559 108 0
-560 108 0
559 560 -108 0
509 561 0
-509 -561 0
561 -562 0
512 -562 0
-561 -512 562 0
509 -563 0
516 -563 0
-509 -516 563 0
-562 109 0
-563 109 0
562 563 -109 0
509 564 0
-509 -564 0
564 -565 0
513 -565 0
-564 -513 565 0
509 -566 0
517 -566 0
-509 -517 566 0
-565 110 0
-566 110 0
565 566 -110 0
509 567 0
-509 -567 0
567 -568 0
518 -568 0
-567 -518 568 0
509 -569 0
536 -569 0
-509 -536 569 0
-568 554 0
-569 554 0
568 569 -554 0
509 -570 0
552 -570 0
-509 -552 570 0
-570 571 0
-554 571 0
570 554 -571 0
571 617 0
-571 -617 0
617 -618 0
572 -618 0
-617 -572 618 0
571 -619 0
576 -619 0
-571 -576 619 0
-618 111 0
-619 111 0
618 619 -111 0
571 620 0
-571 -620 0
620 -621 0
573 -621 0
-620 -573 621 0
571 -622 0
577 -622 0
-571 -577 622 0
-621 112 0
-622 112 0
621 622 -112 0
571 623 0
-571 -623 0
623 -624 0
574 -624 0
-623 -574 624 0
571 -625 0
578 -625 0
-571 -578 625 0
-624 113 0
-625 113 0
624 625 -113 0
571 626 0
-571 -626 0
626 -627 0
575 -627 0
-626 -575 627 0
571 -628 0
579 -628 0
-571 -579 628 0
-627 114 0
-628 114 0
627 628 -114 0
571 629 0
-571 -629 0
629 -630 0
580 -630 0
-629 -580 630 0
571 -631 0
598 -631 0
-571 -598 631 0
-630 616 0
-631 616 0
630 631 -616 0
571 -632 0
614 -632 0
-571 -614 632 0
-632 633 0
-616 633 0
632 616 -633 0
633 669 0
-633 -669 0
669 -670 0
634 -670 0
-669 -634 670 0
633 -671 0
637 -671 0
-633 -637 671 0
-670 115 0
-671 115 0
670 671 -115 0
633 672 0
-633 -672 0
672 -673 0
635 -673 0
-672 -635 673 0
633 -674 0
638 -674 0
-633 -638 674 0
-673 116 0
-674 116 0
673 674 -116 0
633 675 0
-633 -675 0
675 -676 0
636 -676 0
-675 -636 676 0
633 -677 0
639 -677 0
-633 -639 677 0
-676 117 0
-677 117 0
676 677 -117 0
633 678 0
-633 -678 0
678 -679 0
640 -679 0
-678 -640 679 0
633 -680 0
654 -680 0
-633 -654 680 0
-679 668 0
-680 668 0
679 680 -668 0
633 -681 0
666 -681 0
-633 -666 681 0
-681 682 0
-668 682 0
681 668 -682 0
682 -118 0
-682 118 0
